9 965
535 8 492 8 399 9 233 10 70 14 902 18 772 30
535 8 492 8 399 9 233 10 70 14 902 18 772 30
525 7 479 7 299 7 87 9 884 11 701 15 552 22
535 8 491 8 398 9 231 10 100 15
525 7 482 7 365 7 212 9 29 11 823 18
525 7 505 7 381 7 218 9 50 11 850 15 664 21
525 7 482 7 362 7 201 9 13 11 820 18
525 7 445 7 264 7 63 9 879 13
525 7 505 7 381 7 218 9 50 11 850 15 664 21
